decision_x1=[0,2];
decision_x2=[0,2];
decision_x3=[0,2];
decision_x4=[0,2];
decision_x5=[0,2];
decision_x6=[0,2];
decision_x7=[0,2];
decision_x8=[0,2];
decision_x9=[0,2];
decision_x10=[0,2];
decision_x11=[0,2];
decision_x12=[0,2];
random_y1=[0,2];
random_y2=[0,2];
random_y3=[0,2];
random_y4=[0,2];
random_y5=[0,2];
random_y6=[0,2];
random_y7=[0,2];
random_y8=[0,2];
random_y9=[0,2];
random_y10=[0,2];
random_y11=[0,2];
random_y12=[0,2];
constraint_x2_x1=[
0,0,35|
0,1,37|
0,2,60|
1,0,35|
1,1,13|
1,2,76|
2,0,83|
2,1,76|
2,2,84|
];
constraint_x3_x1=[
0,0,63|
0,1,3.2|
0,2,96|
1,0,14|
1,1,27|
1,2,65|
2,0,69|
2,1,86|
2,2,25|
];
constraint_x4_x3=[
0,0,37|
0,1,19|
0,2,7|
1,0,8.7|
1,1,24|
1,2,5.2|
2,0,73|
2,1,56|
2,2,65|
];
constraint_x5_x1=[
0,0,31|
0,1,53|
0,2,50|
1,0,65|
1,1,37|
1,2,93|
2,0,93|
2,1,13|
2,2,92|
];
constraint_x5_x3=[
0,0,42|
0,1,98|
0,2,51|
1,0,20|
1,1,47|
1,2,91|
2,0,1.8|
2,1,31|
2,2,71|
];
constraint_x5_x4=[
0,0,59|
0,1,84|
0,2,20|
1,0,62|
1,1,99|
1,2,8.4|
2,0,67|
2,1,51|
2,2,82|
];
constraint_x6_x2=[
0,0,53|
0,1,6.1|
0,2,59|
1,0,20|
1,1,16|
1,2,70|
2,0,15|
2,1,15|
2,2,63|
];
constraint_x6_x4=[
0,0,67|
0,1,59|
0,2,90|
1,0,21|
1,1,40|
1,2,47|
2,0,53|
2,1,97|
2,2,8.9|
];
constraint_x7_x1=[
0,0,55|
0,1,31|
0,2,32|
1,0,73|
1,1,5.4|
1,2,48|
2,0,32|
2,1,38|
2,2,30|
];
constraint_x7_x2=[
0,0,41|
0,1,39|
0,2,24|
1,0,22|
1,1,12|
1,2,40|
2,0,14|
2,1,63|
2,2,27|
];
constraint_x7_x3=[
0,0,81|
0,1,78|
0,2,38|
1,0,75|
1,1,67|
1,2,44|
2,0,34|
2,1,89|
2,2,81|
];
constraint_x7_x5=[
0,0,12|
0,1,13|
0,2,40|
1,0,38|
1,1,36|
1,2,14|
2,0,26|
2,1,72|
2,2,41|
];
constraint_x8_x1=[
0,0,55|
0,1,40|
0,2,38|
1,0,77|
1,1,14|
1,2,66|
2,0,56|
2,1,26|
2,2,0.34|
];
constraint_x8_x2=[
0,0,65|
0,1,33|
0,2,56|
1,0,65|
1,1,40|
1,2,36|
2,0,20|
2,1,49|
2,2,1e+02|
];
constraint_x8_x5=[
0,0,4.9|
0,1,50|
0,2,1.9|
1,0,33|
1,1,44|
1,2,66|
2,0,77|
2,1,57|
2,2,74|
];
constraint_x9_x1=[
0,0,9.5|
0,1,92|
0,2,80|
1,0,17|
1,1,79|
1,2,11|
2,0,55|
2,1,1.4|
2,2,94|
];
constraint_x9_x3=[
0,0,96|
0,1,79|
0,2,59|
1,0,3.2|
1,1,43|
1,2,11|
2,0,90|
2,1,40|
2,2,77|
];
constraint_x9_x6=[
0,0,80|
0,1,83|
0,2,46|
1,0,86|
1,1,12|
1,2,18|
2,0,27|
2,1,34|
2,2,49|
];
constraint_x9_x7=[
0,0,85|
0,1,92|
0,2,97|
1,0,4.3|
1,1,48|
1,2,76|
2,0,21|
2,1,21|
2,2,61|
];
constraint_x9_x8=[
0,0,18|
0,1,90|
0,2,77|
1,0,2.2|
1,1,88|
1,2,84|
2,0,61|
2,1,3.9|
2,2,71|
];
constraint_x10_x4=[
0,0,56|
0,1,83|
0,2,12|
1,0,41|
1,1,64|
1,2,69|
2,0,46|
2,1,95|
2,2,50|
];
constraint_x10_x9=[
0,0,89|
0,1,91|
0,2,32|
1,0,92|
1,1,39|
1,2,13|
2,0,44|
2,1,31|
2,2,71|
];
constraint_x11_x1=[
0,0,31|
0,1,32|
0,2,27|
1,0,96|
1,1,87|
1,2,97|
2,0,86|
2,1,11|
2,2,33|
];
constraint_x11_x3=[
0,0,65|
0,1,22|
0,2,63|
1,0,67|
1,1,3.4|
1,2,62|
2,0,45|
2,1,81|
2,2,8.7|
];
constraint_x11_x4=[
0,0,4.6|
0,1,15|
0,2,79|
1,0,30|
1,1,14|
1,2,49|
2,0,74|
2,1,11|
2,2,79|
];
constraint_x11_x7=[
0,0,91|
0,1,85|
0,2,54|
1,0,23|
1,1,49|
1,2,12|
2,0,61|
2,1,74|
2,2,67|
];
constraint_x11_x9=[
0,0,39|
0,1,18|
0,2,82|
1,0,18|
1,1,95|
1,2,20|
2,0,91|
2,1,18|
2,2,48|
];
constraint_x12_x2=[
0,0,99|
0,1,64|
0,2,55|
1,0,58|
1,1,24|
1,2,77|
2,0,31|
2,1,77|
2,2,27|
];
constraint_x12_x5=[
0,0,31|
0,1,46|
0,2,34|
1,0,26|
1,1,42|
1,2,82|
2,0,34|
2,1,11|
2,2,22|
];
constraint_x12_x7=[
0,0,4.5|
0,1,99|
0,2,60|
1,0,43|
1,1,16|
1,2,85|
2,0,37|
2,1,61|
2,2,29|
];
constraint_x12_x8=[
0,0,53|
0,1,19|
0,2,24|
1,0,18|
1,1,69|
1,2,31|
2,0,55|
2,1,3.5|
2,2,28|
];
constraint_x12_x9=[
0,0,70|
0,1,26|
0,2,80|
1,0,89|
1,1,38|
1,2,61|
2,0,88|
2,1,91|
2,2,0.03|
];
constraint_x12_x10=[
0,0,66|
0,1,60|
0,2,5.1|
1,0,99|
1,1,54|
1,2,40|
2,0,11|
2,1,69|
2,2,11|
];
constraint_x1_y1=[
0,0,54|
0,1,43|
0,2,37|
1,0,34|
1,1,5.4|
1,2,50|
2,0,67|
2,1,61|
2,2,38|
];
constraint_x2_y2=[
0,0,80|
0,1,14|
0,2,50|
1,0,11|
1,1,17|
1,2,67|
2,0,35|
2,1,12|
2,2,76|
];
constraint_x3_y3=[
0,0,45|
0,1,84|
0,2,16|
1,0,76|
1,1,6|
1,2,39|
2,0,11|
2,1,27|
2,2,91|
];
constraint_x4_y4=[
0,0,8.7|
0,1,39|
0,2,40|
1,0,53|
1,1,50|
1,2,62|
2,0,19|
2,1,56|
2,2,20|
];
constraint_x5_y5=[
0,0,37|
0,1,68|
0,2,67|
1,0,27|
1,1,59|
1,2,33|
2,0,90|
2,1,48|
2,2,7.5|
];
constraint_x6_y6=[
0,0,7.1|
0,1,86|
0,2,19|
1,0,26|
1,1,75|
1,2,18|
2,0,97|
2,1,73|
2,2,72|
];
constraint_x7_y7=[
0,0,42|
0,1,4.6|
0,2,33|
1,0,4.4|
1,1,93|
1,2,34|
2,0,41|
2,1,58|
2,2,59|
];
constraint_x8_y8=[
0,0,27|
0,1,38|
0,2,21|
1,0,19|
1,1,15|
1,2,1.3|
2,0,23|
2,1,83|
2,2,63|
];
constraint_x9_y9=[
0,0,1.9|
0,1,71|
0,2,59|
1,0,71|
1,1,28|
1,2,86|
2,0,81|
2,1,4.7|
2,2,50|
];
constraint_x10_y10=[
0,0,38|
0,1,80|
0,2,60|
1,0,70|
1,1,28|
1,2,90|
2,0,79|
2,1,42|
2,2,61|
];
constraint_x11_y11=[
0,0,41|
0,1,97|
0,2,29|
1,0,32|
1,1,17|
1,2,56|
2,0,26|
2,1,18|
2,2,25|
];
constraint_x12_y12=[
0,0,47|
0,1,82|
0,2,70|
1,0,25|
1,1,97|
1,2,57|
2,0,21|
2,1,46|
2,2,1e+02|
];
initial_distribution_y1=[0.32,0.34,0.34];
initial_distribution_y2=[0.24,0.39,0.37];
initial_distribution_y3=[0.27,0.3,0.43];
initial_distribution_y4=[0.53,0.18,0.29];
initial_distribution_y5=[0.32,0.26,0.42];
initial_distribution_y6=[0.056,0.62,0.32];
initial_distribution_y7=[0.61,0.051,0.34];
initial_distribution_y8=[0.31,0.45,0.24];
initial_distribution_y9=[0.55,0.18,0.27];
initial_distribution_y10=[0.82,0.03,0.15];
initial_distribution_y11=[0.15,0.46,0.39];
initial_distribution_y12=[0.7,0.14,0.16];
transition_y1=[
0.6,0.38,0.014|
0.27,0.17,0.56|
0.37,0.059,0.57|
];
transition_y2=[
0.13,0.36,0.5|
0.017,0.73,0.25|
0.52,0.35,0.13|
];
transition_y3=[
0.34,0.067,0.59|
0.35,0.46,0.19|
0.36,0.34,0.31|
];
transition_y4=[
0.19,0.37,0.44|
0.31,0.47,0.22|
0.33,0.33,0.34|
];
transition_y5=[
0.089,0.32,0.59|
0.34,0.5,0.16|
0.34,0.051,0.61|
];
transition_y6=[
0.072,0.53,0.4|
0.039,0.49,0.47|
0.49,0.024,0.49|
];
transition_y7=[
0.34,0.31,0.35|
0.44,0.15,0.41|
0.28,0.44,0.28|
];
transition_y8=[
0.19,0.095,0.71|
0.28,0.39,0.33|
0.32,0.15,0.54|
];
transition_y9=[
0.43,0.23,0.34|
0.067,0.52,0.42|
0.41,0.52,0.068|
];
transition_y10=[
0.43,0.43,0.14|
0.079,0.45,0.47|
0.47,0.03,0.5|
];
transition_y11=[
0.14,0.11,0.75|
0.19,0.63,0.18|
0.54,0.033,0.42|
];
transition_y12=[
0.34,0.35,0.31|
0.27,0.39,0.34|
0.32,0.32,0.36|
];
